c uprop, v00.0, 
c reading from data/prog698.c.cnf
c done reading: 0.002308
p cnf 131 511
-36 -53 0
36 53 0
-32 53 0
32 -53 0
36 -47 0
-46 -47 0
-36 46 47 0
-36 -41 46 0
36 -41 -46 0
36 41 46 0
-36 41 -46 0
-37 47 0
-35 -37 0
35 37 -47 0
-34 35 -47 0
-34 -35 47 0
34 35 47 0
34 -35 -47 0
-33 37 0
-31 -33 0
31 33 -37 0
-29 31 -37 0
-29 -31 37 0
29 31 37 0
29 -31 -37 0
33 -51 0
-49 -51 0
-33 49 51 0
-33 49 -55 0
33 -49 -55 0
33 49 55 0
-33 -49 55 0
51 -56 0
-43 -56 0
43 -51 56 0
43 -51 -57 0
-43 51 -57 0
43 51 57 0
-43 -51 57 0
56 -58 0
-39 -58 0
39 -56 58 0
39 -56 -59 0
-39 56 -59 0
39 56 59 0
-39 -56 59 0
53 -60 0
-53 60 0
-46 -53 61 0
46 53 -61 0
46 -61 0
53 -61 0
46 -61 -62 0
53 -61 -62 0
-61 -62 0
-46 61 62 0
-53 61 62 0
46 53 -62 0
-35 -46 63 0
-35 -61 63 0
-46 -61 63 0
35 46 -63 0
35 61 -63 0
46 61 -63 0
35 -63 -64 0
46 -63 -64 0
61 -63 -64 0
-35 63 64 0
-46 63 64 0
-61 63 64 0
-35 -46 -61 64 0
35 46 61 -64 0
-31 -35 65 0
-31 -63 65 0
-35 -63 65 0
31 35 -65 0
31 63 -65 0
35 63 -65 0
31 -65 -66 0
35 -65 -66 0
63 -65 -66 0
-31 65 66 0
-35 65 66 0
-63 65 66 0
-31 -35 -63 66 0
31 35 63 -66 0
-31 -49 67 0
-49 -65 67 0
-31 -65 67 0
31 49 -67 0
49 65 -67 0
31 65 -67 0
-28 49 -67 0
-28 31 -67 0
-28 65 -67 0
28 -49 67 0
28 -31 67 0
28 -65 67 0
28 -31 -49 -65 0
-28 31 49 65 0
27 -43 -49 0
27 -43 -67 0
27 -49 -67 0
-27 43 49 0
-27 43 67 0
-27 49 67 0
-26 -27 43 0
-26 -27 49 0
-26 -27 67 0
26 27 -43 0
26 27 -49 0
26 27 -67 0
26 -43 -49 -67 0
-26 43 49 67 0
25 -39 -43 0
25 -27 -39 0
25 -27 -43 0
-25 39 43 0
-25 27 39 0
-25 27 43 0
-24 -25 39 0
-24 -25 43 0
-24 -25 27 0
24 25 -39 0
24 25 -43 0
24 25 -27 0
24 -27 -39 -43 0
-24 27 39 43 0
39 -52 0
25 -52 0
-25 -39 52 0
-25 -39 -45 0
25 39 -45 0
25 -39 45 0
-25 39 45 0
-30 66 0
30 -66 0
-28 48 -53 0
28 -48 53 0
28 -48 0
-48 53 0
28 -42 -48 0
-42 -48 53 0
-42 -48 0
-28 42 48 0
42 48 -53 0
28 -42 53 0
-26 38 -46 0
-26 38 -48 0
38 -46 -48 0
26 -38 46 0
26 -38 48 0
-38 46 48 0
-23 26 -38 0
-23 -38 46 0
-23 -38 48 0
23 -26 38 0
23 38 -46 0
23 38 -48 0
23 -26 -46 -48 0
-23 26 46 48 0
22 -24 -35 0
22 -24 -38 0
22 -35 -38 0
-22 24 35 0
-22 24 38 0
-22 35 38 0
-21 -22 24 0
-21 -22 35 0
-21 -22 38 0
21 22 -24 0
21 22 -35 0
21 22 -38 0
21 -24 -35 -38 0
-21 24 35 38 0
20 -31 -45 0
20 -22 -45 0
20 -22 -31 0
-20 31 45 0
-20 22 45 0
-20 22 31 0
20 -45 0
20 -31 0
20 -22 0
-22 -31 -45 0
19 -49 -52 0
19 -20 -52 0
19 -20 -49 0
-19 49 52 0
-19 20 52 0
-19 20 49 0
19 -52 0
19 -49 0
19 -20 0
-20 -49 -52 0
-18 43 0
-18 19 0
18 -19 -43 0
19 -43 0
-19 43 0
-18 -39 0
18 -39 0
-18 39 0
-17 -60 0
17 60 0
-16 60 0
16 -60 0
-15 17 0
-15 -62 0
15 -17 62 0
-14 -17 62 0
-14 17 -62 0
14 17 62 0
14 -17 -62 0
-13 15 0
-13 -64 0
13 -15 64 0
-12 -15 64 0
-12 15 -64 0
12 15 64 0
12 -15 -64 0
-11 13 0
-11 -30 0
11 -13 30 0
-10 -13 30 0
-10 13 -30 0
10 13 30 0
10 -13 -30 0
-9 11 0
-9 -42 0
9 -11 42 0
-8 -11 42 0
-8 11 -42 0
8 11 42 0
8 -11 -42 0
-7 9 0
-7 -23 0
7 -9 23 0
-6 -9 23 0
-6 9 -23 0
6 9 23 0
6 -9 -23 0
-5 7 0
-5 -21 0
5 -7 21 0
-7 21 -68 0
7 -21 -68 0
7 21 68 0
-7 -21 68 0
5 -69 0
-5 69 0
-5 -70 0
5 70 0
69 -71 0
-69 71 0
-69 -72 0
69 72 0
71 -73 0
-71 73 0
-71 -74 0
71 74 0
73 -75 0
-73 75 0
-73 -76 0
73 76 0
75 -77 0
-75 77 0
-75 -78 0
75 78 0
-79 -81 0
-81 -82 0
79 81 82 0
79 82 -84 0
-79 -82 -84 0
-79 82 84 0
79 -82 84 0
81 -85 0
-85 -86 0
-81 85 86 0
-81 86 -88 0
81 -86 -88 0
81 86 88 0
-81 -86 88 0
85 -89 0
-89 -90 0
-85 89 90 0
-85 90 -92 0
85 -90 -92 0
85 90 92 0
-85 -90 92 0
89 -93 0
-93 -94 0
-89 93 94 0
-89 94 -96 0
89 -94 -96 0
89 94 96 0
-89 -94 96 0
93 -97 0
-97 -98 0
-93 97 98 0
-93 98 -100 0
93 -98 -100 0
93 98 100 0
-93 -98 100 0
97 -101 0
-101 -102 0
-97 101 102 0
-97 102 -104 0
97 -102 -104 0
97 102 104 0
-97 -102 104 0
101 -105 0
-105 -106 0
-101 105 106 0
-101 106 -108 0
101 -106 -108 0
101 106 108 0
-101 -106 108 0
90 -109 0
79 -109 0
-79 -90 109 0
-79 -90 -110 0
79 90 -110 0
79 -90 110 0
-79 90 110 0
-82 -94 111 0
-94 -109 111 0
-82 -109 111 0
82 94 -111 0
94 109 -111 0
82 109 -111 0
94 -111 -112 0
82 -111 -112 0
109 -111 -112 0
-94 111 112 0
-82 111 112 0
-109 111 112 0
-82 -94 -109 112 0
82 94 109 -112 0
-86 -98 113 0
-98 -111 113 0
-86 -111 113 0
86 98 -113 0
98 111 -113 0
86 111 -113 0
98 -113 -114 0
86 -113 -114 0
111 -113 -114 0
-98 113 114 0
-86 113 114 0
-111 113 114 0
-86 -98 -111 114 0
86 98 111 -114 0
-90 -102 115 0
-102 -113 115 0
-90 -113 115 0
90 102 -115 0
102 113 -115 0
90 113 -115 0
102 -115 -116 0
90 -115 -116 0
113 -115 -116 0
-102 115 116 0
-90 115 116 0
-113 115 116 0
-90 -102 -113 116 0
90 102 113 -116 0
-94 -106 117 0
-106 -115 117 0
-94 -115 117 0
94 106 -117 0
106 115 -117 0
94 115 -117 0
-106 117 0
-94 117 0
-115 117 0
-94 -106 -115 0
98 -118 0
117 -118 0
-98 -117 118 0
-98 117 0
98 -117 0
-54 102 0
-54 118 0
54 -102 -118 0
-102 118 0
102 -118 0
-54 -106 0
54 -106 0
-54 106 0
-50 -79 0
-50 -82 0
50 79 82 0
-44 79 82 0
-44 -79 -82 0
44 -79 82 0
44 79 -82 0
-40 50 0
-40 -86 0
40 -50 86 0
-50 -80 86 0
50 -80 -86 0
50 80 86 0
-50 80 -86 0
40 -83 0
-83 -110 0
-40 83 110 0
-40 -87 110 0
40 -87 -110 0
40 87 110 0
-40 87 -110 0
83 -91 0
-91 -112 0
-83 91 112 0
-83 -95 112 0
83 -95 -112 0
83 95 112 0
-83 95 -112 0
91 -99 0
-99 -114 0
-91 99 114 0
-91 -103 114 0
91 -103 -114 0
91 103 114 0
-91 103 -114 0
99 -107 0
-107 -116 0
-99 107 116 0
-99 116 -119 0
99 -116 -119 0
99 116 119 0
-99 -116 119 0
107 -120 0
-107 120 0
-107 -121 0
107 121 0
120 -122 0
-120 122 0
-120 -123 0
120 123 0
122 -124 0
-122 124 0
-122 -125 0
122 125 0
124 -126 0
-124 126 0
-124 -127 0
124 127 0
126 -128 0
-126 128 0
-126 -129 0
126 129 0
60 -130 0
79 -130 0
-60 -79 130 0
-60 -79 0
60 79 0
-62 -82 131 0
-62 -130 131 0
-82 -130 131 0
62 82 -131 0
62 130 -131 0
82 130 -131 0
62 -131 0
82 -131 0
130 -131 0
62 82 130 0
4 -64 -86 0
4 -64 -131 0
4 -86 -131 0
-4 64 86 0
-4 64 131 0
-4 86 131 0
-4 64 0
-4 86 0
-4 131 0
64 86 131 0
3 -30 -110 0
3 -4 -30 0
3 -4 -110 0
-3 30 110 0
-3 4 30 0
-3 4 110 0
-3 30 0
-3 110 0
-3 4 0
4 30 110 0
2 -42 -112 0
2 -3 -42 0
2 -3 -112 0
-2 42 112 0
-2 3 42 0
-2 3 112 0
2 -42 0
2 -112 0
2 -3 0
-3 -42 -112 0
1 -23 -114 0
1 -2 -23 0
1 -2 -114 0
-1 23 114 0
-1 2 23 0
-1 2 114 0
-1 23 0
-1 114 0
-1 2 0
2 23 114 0
-21 -116 0
-1 -21 0
-1 -116 0
1 21 116 0
